N = 8;
H = 6;
T = 2;

avail = array3d(1..N, 1..H, 1..T, [2, 2, 8, 10, 9, 3, 7, 0, 8, 8, 5, 2, 2, 10, 8, 0, 7, 5, 5, 8, 3, 0, 8, 8, 2, 9, 9, 3, 5, 6, 2, 9, 0, 8, 10, 2, 10, 1, 8, 2, 6, 6, 1, 0, 7, 6, 5, 0, 8, 6, 10, 5, 10, 5, 6, 10, 6, 8, 6, 4, 1, 2, 6, 9, 6, 5, 6, 2, 10, 9, 6, 8, 9, 4, 6, 2, 10, 4, 10, 7, 3, 6, 6, 7, 6, 9, 5, 6, 10, 5, 3, 7, 9, 9, 2, 7]);

r = array2d(1..H, 1..T, [2, 2, 1, 2, 2, 1, 1, 1, 1, 3, 0, 3]);
